
Log started (V12.9.0.0) Sun Dec 22 10:27:37 2019


Problem 'C:\Users\apwhe\AppData\Local\Temp\b1b6d3af97654ee79d700283c3433712-pulp.lp' read.
Read time = 0.88 sec. (23.99 ticks)
Tried aggregator 1 time.
MIP Presolve eliminated 17258 rows and 0 columns.
MIP Presolve modified 1844 coefficients.
Reduced MIP has 194643 rows, 105950 columns, and 858867 nonzeros.
Reduced MIP has 105950 binaries, 0 generals, 0 SOSs, and 0 indicators.
Presolve time = 2.30 sec. (1682.93 ticks)
Probing time = 0.41 sec. (43.49 ticks)
Tried aggregator 1 time.
Reduced MIP has 194643 rows, 105950 columns, and 858867 nonzeros.
Reduced MIP has 105950 binaries, 0 generals, 0 SOSs, and 0 indicators.
Presolve time = 1.91 sec. (1211.27 ticks)
Probing time = 0.28 sec. (38.65 ticks)
Clique table members: 482946.
MIP emphasis: balance optimality and feasibility.
MIP search method: dynamic search.
Parallel mode: deterministic, using up to 4 threads.
Root relaxation solution time = 61.83 sec. (21842.16 ticks)

        Nodes                                         Cuts/
   Node  Left     Objective  IInf  Best Integer    Best Bound    ItCnt     Gap

*     0+    0                       731055.5279        0.0000           100.00%
*     0+    0                       730980.4564        0.0000           100.00%
*     0+    0                       661696.0739        0.0000           100.00%
*     0+    0                       650560.3416        0.0000           100.00%
*     0+    0                       636203.6331        0.0000           100.00%
*     0+    0                       635610.6399        0.0000           100.00%
      0     0   196127.9918   640   635610.6399   196127.9918       52   69.14%
*     0+    0                       617590.5489   196127.9918            68.24%
      0     0   196559.3785   711   617590.5489      Cuts: 17     1171   68.17%
      0     0   196742.5265   748   617590.5489      Cuts: 11     3574   68.14%
      0     0   196810.7551   861   617590.5489       Cuts: 7     4425   68.13%
*     0+    0                       587610.1836   196810.7551            66.51%
      0     0   196828.7235   808   587610.1836       Cuts: 6     4909   66.50%
      0     0   196832.3616   815   587610.1836       Cuts: 4     5088   66.50%
      0     0   196833.6713   820   587610.1836    MIRcuts: 1     5179   66.50%
